c This is QMaxSAT 2017 based on 14.07
c This is Glucose 3.0
c This is MiniSat 2.2.0
c WARNING: for repeatability, setting FPU to use double precision
c card = mrwto, comp = 0, pmodel = 0, narr = 4, mct = 29, verb = 0
cr firstCPXsol 0 0 0
c top = 167313
c |  Number of variables:    2048                                             |
c |  Number of clauses:      56974                                            |
c |  Weight of hard clauses: 167313                                           |
c |  Number of soft clauses: 3920                                             |
c |  Number of unit soft clauses: 0                                           |
c |  Maximum Cardinality (by unit): 788168       (0           )               |
c last restart ## conflicts  :  8 456 
o 5215 | cpuTime 0.241206 s
c Sum of weights = 197042
c A number of soft clauses remained = 980
c MRWTO encoding for Pseudo-Boolean Constraints
c sizeMax=5215
c No.0 Divisor=9	generated by pow1
c No.1 Divisor=9	generated by pow1
c No.2 Divisor=9	generated by pow1
c No.3 Divisor=9	generated by pow1
c p0= 9	p1= 9	p2= 9	p3= 9	
c number of digits = 5
c linkingVar[0].size = 9, linkingVar[1].size = 9, linkingVar[2].size = 9, linkingVar[3].size = 8, linkingVar[4].size = 1, 
c Pseudo-Boolean Constraints: 23792 variables and 197090 clauses
c Sum of weights = 197042
c A number of soft clauses remained = 980
c MRWTO encoding for Pseudo-Boolean Constraints
c sizeMax=5215
c No.0 Divisor=9	generated by pow1
c No.1 Divisor=9	generated by pow1
c No.2 Divisor=9	generated by pow1
c No.3 Divisor=9	generated by pow1
c p0= 9	p1= 9	p2= 9	p3= 9	
c number of digits = 5
c linkingVar[0].size = 9, linkingVar[1].size = 9, linkingVar[2].size = 9, linkingVar[3].size = 8, linkingVar[4].size = 1, 
c Pseudo-Boolean Constraints: 23792 variables and 197090 clauses
c Sum of weights = 197042
c A number of soft clauses remained = 980
c MRWTO encoding for Pseudo-Boolean Constraints
c sizeMax=5215
c No.0 Divisor=9	generated by pow1
c No.1 Divisor=9	generated by pow1
c No.2 Divisor=9	generated by pow1
c No.3 Divisor=9	generated by pow1
c p0= 9	p1= 9	p2= 9	p3= 9	
c number of digits = 5
c linkingVar[0].size = 9, linkingVar[1].size = 9, linkingVar[2].size = 9, linkingVar[3].size = 8, linkingVar[4].size = 1, 
c Pseudo-Boolean Constraints: 23792 variables and 197090 clauses
c Sum of weights = 197042
c A number of soft clauses remained = 980
c MRWTO encoding for Pseudo-Boolean Constraints
c sizeMax=5215
c No.0 Divisor=9	generated by pow1
c No.1 Divisor=9	generated by pow1
c No.2 Divisor=9	generated by pow1
c No.3 Divisor=9	generated by pow1
c p0= 9	p1= 9	p2= 9	p3= 9	
c number of digits = 5
c linkingVar[0].size = 9, linkingVar[1].size = 9, linkingVar[2].size = 9, linkingVar[3].size = 8, linkingVar[4].size = 1, 
c Pseudo-Boolean Constraints: 23792 variables and 197090 clauses
c last restart ## conflicts  :  156 4395 
o 3900 | cpuTime 0.531406 s
c last restart ## conflicts  :  360 5154 
o 3574 | cpuTime 0.968618 s
c last restart ## conflicts  :  341 6076 
o 2521 | cpuTime 1.01463 s
c last restart ## conflicts  :  573 3002 
o 1787 | cpuTime 1.23327 s
c last restart ## conflicts  :  4747 1481 
o 1733 | cpuTime 1.97665 s
c last restart ## conflicts  :  2124 1371 
o 1709 | cpuTime 6.34843 s
c last restart ## conflicts  :  648 1235 
o 1671 | cpuTime 6.58013 s
s UNKNOWN
c Search is stopped by a limit (maybe time-limit)
cr positiVarArr: [ | 22(1->19) | 62(1->27) | 73(1->6) | 110(1->11) | 156(2->25) | 171(3->8) | 197(4->2) | 253(5->26) | 287(6->28) | 291(7->1) | 337(8->14) | 378(9->23) | 407(10->20) | 441(11->22) | 455(12->4) | 504(13->21) | 516(14->1) | 557(15->10) | 608(16->29) | 626(17->15) | 652(18->9) | 693(19->18) | 731(20->24) | 751(21->12) | 787(22->16) | 810(23->7) | 834(24->1) | 865(25->1) | 902(26->3) | 936(27->5) | 976(28->13) | 1012(29->17) | ]
cr the 1-th chain: [ 1->19->18->9->23->7->1 ] (#non-depot=5) {#cumul.=6}
cr the 2-th chain: [ 1->27->5->26->3->8->14->1 ] (#non-depot=6) {#cumul.=12}
cr the 3-th chain: [ 1->6->28->13->21->12->4->2->25->1 ] (#non-depot=8) {#cumul.=20}
cr the 4-th chain: [ 1->11->22->16->29->17->15->10->20->24->1 ] (#non-depot=9) {#cumul.=29}
c Latest Answer = 0 by 8 loops
c restarts              : 79566
c conflicts             : 11110419       (3090 /sec)
c decisions             : 42137925       (0.00 % random) (11721 /sec)
c propagations          : 1327743994     (369314 /sec)
c conflict literals     : 2026369139     (9.12 % deleted)
c Memory used           : 606.00 MB
c CPU time              : 3595.17 s
